set C := 1 2 3 4 5 6 7 8 9 10;

param q :=
    1 11.45
    2 38.82
    3 29.33
    4 10.81
    5 42.02
    6 47.17
    7 33.25
    8 49.35
    9 46.60
    10 37.09;
param ca :=
    1 226.97
    2 160.51
    3 236.89
    4 214.24
    5 170.40
    6 232.16
    7 155.52
    8 246.40
    9 207.19
    10 161.86;
param cc :=
    1 39.63
    2 40.93
    3 47.80
    4 43.62
    5 40.00
    6 34.52
    7 38.99
    8 49.27
    9 49.22
    10 36.82;
param cp :=
    1 9.54
    2 6.59
    3 9.67
    4 8.23
    5 10.81
    6 8.93
    7 10.86
    8 5.98
    9 9.40
    10 10.88;
param sMin := 0;
param sMax := 80;

namespace t0
{
    set A :=;
    set AAnt := 1 2;
    set P := 3 4 5 6 7 8 9 10;
    set S := 1;

    param p :=
        1 1.0000000000;
    param d :=
        1 27.17;
    param h := 1;
    param s0 := 20;
}

namespace t1
{
    set AAnt :=;
    set P := 3 4 5 6 7 8 9 10;
    set PAnt := 3 4 5 6 7 8 9 10;
    set S := 1 2 3;

    param p :=
        1 0.0689696013
        2 0.3652121077
        3 0.5658182910;
    param d :=
        1 12.62
        2 32.83
        3 49.29;
    param h := 1;
}

namespace t2
{
    set A2Ant :=;
    set P := 3 4 5 6 7 8 9 10;
    set PAnt := 3 4 5 6 7 8 9 10;
    set S := 1 2 3;

    param p :=
        1 0.5003928604
        2 0.4431491545
        3 0.0564579851;
    param d :=
        1 41.53
        2 47.72
        3 45.47;
    param h := 1;
}

namespace t3
{
    set P := 3 4 5 6 7 8 9 10;
    set PAnt := 3 4 5 6 7 8 9 10;
    set S := 1 2 3;

    param p :=
        1 0.4542286405
        2 0.1807272397
        3 0.3650441198;
    param d :=
        1 48.60
        2 33.43
        3 27.86;
    param h := 1;
}

namespace t4
{
    set PAnt := 3 4 5 6 7 8 9 10;
    set S := 1 2 3;

    param p :=
        1 0.4517051370
        2 0.2856361266
        3 0.2626587364;
    param d :=
        1 28.64
        2 21.51
        3 10.50;
    param h := 1;
}
